c f0 = g0 but f1 != g1
p cnf 10 13
c f1 g1 r1 x1 s0 s1 s2 s3 l1 l2
c  1  2  3  4  5  6  7  8  9 10
1 2 0
-1 -2 0
-1 9 10 0
1 -9 0
1 -10 0
-9 -3 0
-9 4 0
-9 8 0
9 3 -4 -8 0
-10 -3 0
-10 -4 0
-10 6 0
10 3 4 -6 0
